130 5
10 10 10 10 10 

0 0 0 0 0 0 1 2 
0 0 0 0 0 0 4 3 4 5 12 
7 0 0 0 0 9 3 11 10 6 
8 0 0 0 0 7 2 11 7 
2 0 0 0 0 8 2 10 7 
6 0 0 0 0 6 1 7 
2 0 0 0 0 7 1 8 
10 0 0 0 0 8 1 9 
2 0 0 0 0 5 1 13 
5 0 0 0 0 10 1 13 
9 0 0 0 0 8 1 13 
3 0 0 0 0 7 1 13 
0 0 0 0 0 0 2 14 26 
0 0 0 0 0 0 4 15 19 20 24 
3 3 0 0 0 0 2 23 16 
5 10 0 0 0 0 2 22 17 
3 10 0 0 0 0 1 18 
8 8 0 0 0 0 1 21 
7 5 0 0 0 0 1 23 
9 10 0 0 0 0 1 22 
10 10 0 0 0 0 1 25 
6 3 0 0 0 0 1 25 
8 10 0 0 0 0 1 25 
7 6 0 0 0 0 1 25 
0 0 0 0 0 0 1 38 
0 0 0 0 0 0 3 27 29 32 
4 0 2 0 0 0 2 30 28 
1 0 10 0 0 0 2 35 31 
6 0 9 0 0 0 1 30 
8 0 5 0 0 0 2 35 33 
10 0 10 0 0 0 2 36 33 
1 0 6 0 0 0 1 33 
3 0 8 0 0 0 1 34 
7 0 8 0 0 0 1 37 
5 0 7 0 0 0 1 37 
7 0 10 0 0 0 1 37 
0 0 0 0 0 0 1 38 
0 0 0 0 0 0 3 39 51 73 
0 0 0 0 0 0 1 40 
8 0 0 6 0 0 2 42 41 
5 0 0 7 0 0 3 45 44 43 
4 0 0 4 0 0 2 45 43 
9 0 0 8 0 0 3 48 47 46 
1 0 0 7 0 0 3 48 47 46 
1 0 0 7 0 0 2 47 46 
5 0 0 7 0 0 1 49 
7 0 0 9 0 0 1 49 
2 0 0 10 0 0 1 49 
7 0 0 10 0 0 1 50 
0 0 0 0 0 0 2 95 107 
0 0 0 0 0 0 1 52 
3 0 10 0 2 0 1 53 
1 0 5 0 9 0 3 58 55 54 
2 0 7 0 7 0 1 56 
1 0 6 0 9 0 1 56 
6 0 5 0 8 0 2 64 57 
4 0 5 0 5 0 4 71 63 60 59 
1 0 10 0 8 0 2 71 59 
2 0 7 0 8 0 1 61 
10 0 6 0 10 0 1 62 
10 0 8 0 10 0 2 70 65 
9 0 10 0 7 0 2 70 65 
8 0 10 0 6 0 2 70 65 
10 0 9 0 8 0 4 71 70 68 67 
6 0 10 0 9 0 2 68 66 
9 0 10 0 6 0 2 69 67 
4 0 2 0 10 0 1 72 
5 0 9 0 7 0 1 72 
8 0 7 0 9 0 1 72 
6 0 10 0 6 0 1 72 
6 0 4 0 6 0 1 72 
0 0 0 0 0 0 1 119 
0 0 0 0 0 0 1 74 
2 2 0 0 3 0 2 77 75 
8 9 0 0 7 0 1 76 
8 8 0 0 6 0 1 78 
6 9 0 0 4 0 1 78 
10 8 0 0 10 0 2 80 79 
5 4 0 0 9 0 3 90 86 81 
4 3 0 0 10 0 4 86 85 84 83 
5 10 0 0 9 0 2 85 82 
2 9 0 0 9 0 3 88 84 83 
10 10 0 0 7 0 4 93 92 89 87 
7 10 0 0 7 0 3 93 92 87 
7 9 0 0 8 0 3 92 88 87 
3 9 0 0 10 0 2 92 91 
6 6 0 0 8 0 1 91 
7 4 0 0 10 0 1 91 
5 8 0 0 7 0 1 91 
1 4 0 0 6 0 1 93 
3 10 0 0 9 0 1 94 
7 8 0 0 6 0 1 94 
10 10 0 0 5 0 1 94 
0 0 0 0 0 0 1 119 
0 0 0 0 0 0 3 96 98 101 
3 0 0 5 0 0 3 105 104 97 
1 0 0 5 0 0 2 103 99 
4 0 0 8 0 0 3 105 104 103 
4 0 0 2 0 0 1 100 
10 0 0 10 0 0 1 102 
8 0 0 8 0 0 1 102 
5 0 0 10 0 0 1 106 
4 0 0 9 0 0 1 106 
9 0 0 10 0 0 1 106 
5 0 0 8 0 0 1 106 
0 0 0 0 0 0 1 119 
0 0 0 0 0 0 3 108 109 111 
10 0 0 0 2 0 2 112 110 
8 0 0 0 7 0 1 110 
2 0 0 0 4 0 3 117 116 113 
6 0 0 0 10 0 2 117 112 
3 0 0 0 10 0 2 116 114 
1 0 0 0 8 0 1 114 
7 0 0 0 7 0 1 115 
1 0 0 0 8 0 1 118 
3 0 0 0 10 0 1 118 
9 0 0 0 9 0 1 118 
0 0 0 0 0 0 1 119 
0 0 0 0 0 0 2 120 122 
7 0 2 0 0 0 3 126 125 121 
9 0 6 0 0 0 3 129 127 123 
5 0 8 0 0 0 2 125 123 
8 0 7 0 0 0 1 124 
6 0 10 0 0 0 1 128 
2 0 6 0 0 0 1 127 
2 0 10 0 0 0 1 127 
4 0 8 0 0 0 1 130 
3 0 8 0 0 0 1 130 
6 0 10 0 0 0 1 130 
0 0 0 0 0 0 0 
